







































































































34 23 35 27 62 47 17 
46 43 74 40 48 53 8 
14 63 54 7 15 21 18 
71 73 33 72 67 24 19 
70 45 20 42 26 9 60 31 
4 56 51 0 61 57 38 
22 50 30 59 5 68 49 
11 32 55 76 10 12 6 
69 36 64 75 29 58 
3 37 13 44 41 16 1 
65 52 39 25 66 28 2 
